(declare-fun var0 () String)
(assert (RegexIn var0 (RegexConcat (RegexUnion (RegexStar (Str2Reg "d")) (RegexStar (Str2Reg "eee"))) (RegexConcat (RegexUnion (RegexPlus (Str2Reg "bbb")) (RegexPlus (Str2Reg "ccc"))) (RegexConcat (RegexUnion (RegexStar (Str2Reg "999")) (RegexStar (Str2Reg "a"))) (RegexConcat (RegexPlus (RegexPlus (Str2Reg "88"))) (RegexConcat (RegexStar (RegexPlus (Str2Reg "777"))) (RegexConcat (RegexStar (RegexUnion (Str2Reg "5") (Str2Reg "666"))) (RegexConcat (RegexUnion (RegexUnion (Str2Reg "22") (Str2Reg "3")) (RegexPlus (Str2Reg "444"))) (RegexConcat (RegexPlus (RegexStar (Str2Reg "1"))) (RegexConcat (RegexPlus (RegexStar (Str2Reg "00"))) (RegexConcat (RegexUnion (RegexPlus (Str2Reg "}")) (RegexStar (Str2Reg "~~"))) (RegexConcat (RegexUnion (RegexUnion (Str2Reg "_") (Str2Reg "`")) (RegexUnion (Str2Reg "{{{") (Str2Reg "|||"))) (RegexConcat (RegexStar (RegexStar (Str2Reg "^^^"))) (RegexConcat (RegexStar (RegexStar (Str2Reg "]]"))) (RegexConcat (RegexStar (RegexPlus (Str2Reg "\\\\"))) (RegexConcat (RegexStar (RegexStar (Str2Reg "["))) (RegexConcat (RegexStar (RegexPlus (Str2Reg "@@@"))) (RegexConcat (RegexStar (RegexPlus (Str2Reg "??"))) (RegexConcat (RegexUnion (RegexUnion (Str2Reg "<<") (Str2Reg "===")) (RegexPlus (Str2Reg ">>"))) (RegexConcat (RegexStar (RegexPlus (Str2Reg ";;;"))) (RegexConcat (RegexStar (RegexStar (Str2Reg "::"))) (RegexConcat (RegexUnion (RegexUnion (Str2Reg "-") (Str2Reg "..")) (RegexStar (Str2Reg "///"))) (RegexConcat (RegexPlus (RegexPlus (Str2Reg ",,,"))) (RegexConcat (RegexUnion (RegexStar (Str2Reg ")))")) (RegexUnion (Str2Reg "*") (Str2Reg "+"))) (RegexConcat (RegexPlus (RegexStar (Str2Reg "("))) (RegexConcat (RegexPlus (RegexStar (Str2Reg "''"))) (RegexConcat (RegexPlus (RegexPlus (Str2Reg "&&&"))) (RegexConcat (RegexPlus (RegexPlus (Str2Reg "%%"))) (RegexConcat (RegexUnion (RegexPlus (Str2Reg "#")) (RegexPlus (Str2Reg "$$$"))) (RegexConcat (RegexPlus (RegexUnion (Str2Reg "!!") (Str2Reg "\"\""))) (RegexConcat (RegexStar (RegexStar (Str2Reg "ZZ"))) (RegexConcat (RegexUnion (RegexStar (Str2Reg "WW")) (RegexUnion (Str2Reg "X") (Str2Reg "YY"))) (RegexConcat (RegexPlus (RegexPlus (Str2Reg "V"))) (RegexConcat (RegexStar (RegexStar (Str2Reg "U"))) (RegexConcat (RegexPlus (RegexPlus (Str2Reg "TT"))) (RegexConcat (RegexStar (RegexStar (Str2Reg "SSS"))) (RegexConcat (RegexPlus (RegexPlus (Str2Reg "RRR"))) (RegexConcat (RegexStar (RegexStar (Str2Reg "Q"))) (RegexConcat (RegexUnion (RegexUnion (Str2Reg "NN") (Str2Reg "OOO")) (RegexStar (Str2Reg "P"))) (RegexConcat (RegexStar (RegexUnion (Str2Reg "L") (Str2Reg "M"))) (RegexConcat (RegexPlus (RegexPlus (Str2Reg "KK"))) (RegexConcat (RegexPlus (RegexUnion (Str2Reg "I") (Str2Reg "J"))) (RegexConcat (RegexStar (RegexUnion (Str2Reg "G") (Str2Reg "HHH"))) (RegexConcat (RegexPlus (RegexPlus (Str2Reg "FFF"))) (RegexConcat (RegexUnion (RegexStar (Str2Reg "DD")) (RegexPlus (Str2Reg "E"))) (RegexConcat (RegexUnion (RegexStar (Str2Reg "BBB")) (RegexPlus (Str2Reg "C"))) (RegexConcat (RegexStar (RegexPlus (Str2Reg "AAA"))) (RegexConcat (RegexUnion (RegexUnion (Str2Reg "xx") (Str2Reg "yyy")) (RegexPlus (Str2Reg "z"))) (RegexConcat (RegexUnion (RegexStar (Str2Reg "vv")) (RegexPlus (Str2Reg "www"))) (RegexConcat (RegexStar (RegexPlus (Str2Reg "uu"))) (RegexConcat (RegexPlus (RegexUnion (Str2Reg "sss") (Str2Reg "tt"))) (RegexConcat (RegexStar (RegexStar (Str2Reg "rr"))) (RegexConcat (RegexStar (RegexUnion (Str2Reg "p") (Str2Reg "q"))) (RegexConcat (RegexUnion (RegexPlus (Str2Reg "mm")) (RegexUnion (Str2Reg "nnn") (Str2Reg "oo"))) (RegexConcat (RegexUnion (RegexStar (Str2Reg "jj")) (RegexUnion (Str2Reg "k") (Str2Reg "ll"))) (RegexConcat (RegexUnion (RegexStar (Str2Reg "hh")) (RegexStar (Str2Reg "iii"))) (RegexConcat (RegexUnion (RegexPlus (Str2Reg "eee")) (RegexUnion (Str2Reg "fff") (Str2Reg "g"))) (RegexConcat (RegexPlus (RegexStar (Str2Reg "ddd"))) (RegexConcat (RegexUnion (RegexUnion (Str2Reg "99") (Str2Reg "aa")) (RegexUnion (Str2Reg "bbb") (Str2Reg "ccc"))) (RegexConcat (RegexPlus (RegexStar (Str2Reg "888"))) (RegexConcat (RegexStar (RegexPlus (Str2Reg "77"))) (RegexConcat (RegexStar (RegexUnion (Str2Reg "555") (Str2Reg "666"))) (RegexConcat (RegexPlus (RegexUnion (Str2Reg "333") (Str2Reg "444"))) (RegexConcat (RegexUnion (RegexPlus (Str2Reg "11")) (RegexStar (Str2Reg "22"))) (RegexPlus (RegexStar (Str2Reg "00"))))))))))))))))))))))))))))))))))))))))))))))))))))))))))))))))))))
(check-sat)